param NUMSCEN :=4; 			#scenarios
param prob := 0.25;			#probability of scenario.
param pI := 4;		#Total component number
param pT := 5;     		# Time horizon

param nY :=2;
param pH:=
1 1 
2 2 
3 4;
param pT:= 1;
		